
  12    4
  10   10   10   10

   0   0   0   0   0   4 2 9 10 11 
   2  10  10  10  10   4 8 7 4 3 
   3  10  10  10  10   2 6 5 
  10  10  10  10  10   1 5 
   5  10  10  10  10   1 12
   4  10  10  10  10   1 12
   2  10  10  10  10   1 12
   6  10  10  10  10   1 12
   6  10  10  10  10   1 12
   1  10  10  10  10   1 12
   9  10  10  10  10   1 12
   0   0   0   0   0   0 
